p cnf 48 85
-1 17 21 22 24 46 0 
-2 23 32 33 35 36 45 47 0 
-3 -4 27 43 -5 25 -6 44 47 0 
-7 8 9 10 11 12 13 14 18 26 37 47 0 
-8 7 9 10 11 12 13 14 18 26 37 47 0 
-9 7 8 10 11 12 13 14 18 26 37 47 0 
-10 7 8 9 11 12 13 14 18 26 37 47 0 
-11 7 8 9 10 12 13 14 18 26 37 47 0 
-12 7 8 9 10 11 13 14 18 26 37 47 0 
-13 7 8 9 10 11 12 14 18 26 37 46 0 
-14 7 8 9 10 11 12 13 18 26 37 -6 44 47 0 
-1 17 21 22 24 47 0 
-14 7 8 9 10 11 12 13 18 26 37 47 0 
-15 31 47 0 
-16 47 0 
-17 1 21 22 24 46 0 
-18 7 8 9 10 11 12 13 14 26 37 46 0 
-19 34 38 -20 48 0 
-21 1 17 22 24 46 0 
-21 1 17 22 24 48 0 
-22 1 17 21 24 46 0 
-23 2 32 33 35 36 45 47 0 
-24 1 17 21 22 -14 7 8 9 10 11 12 13 18 26 37 -25 5 47 0 
-14 7 8 9 10 11 12 13 18 26 37 -25 5 47 0 
-26 7 8 9 10 11 12 13 14 18 37 -5 25 -6 44 47 0 
-14 7 8 9 10 11 12 13 18 26 37 -5 25 -6 44 47 0 
-3 -27 4 43 -5 25 -28 47 0 
-29 -5 25 -27 4 43 -6 44 47 0 
-4 27 43 -5 25 -6 44 47 0 
-15 31 -26 7 8 9 10 11 12 13 14 18 37 -6 44 47 0 
-30 40 -27 4 43 -25 5 47 0 
-7 8 9 10 11 12 13 14 18 26 37 -5 25 47 0 
-3 -27 4 43 -5 25 -6 44 47 0 
-14 7 8 9 10 11 12 13 18 26 37 -31 15 -6 44 47 0 
-32 2 23 33 35 36 45 47 0 
-13 7 8 9 10 11 12 14 18 26 37 47 0 
-33 2 23 32 35 36 45 47 0 
-34 19 38 46 0 
-15 31 -27 4 43 47 0 
-26 7 8 9 10 11 12 13 14 18 37 47 0 
-34 19 38 47 0 
-35 2 23 32 33 36 45 47 0 
-36 2 23 32 33 35 45 47 0 
-14 7 8 9 10 11 12 13 18 26 37 -5 25 47 0 
-31 15 -32 2 23 33 35 36 45 47 0 
-16 46 0 
-14 7 8 9 10 11 12 13 18 26 37 -16 47 0 
-7 8 9 10 11 12 13 14 18 26 37 -16 47 0 
-37 7 8 9 10 11 12 13 14 18 26 -15 31 -6 44 47 0 
-15 31 -14 7 8 9 10 11 12 13 18 26 37 -6 44 47 0 
-24 1 17 21 22 -38 19 34 -7 8 9 10 11 12 13 14 18 26 37 -3 47 0 
-5 25 -16 47 0 
-27 4 43 -6 44 47 0 
-15 31 -27 4 43 -6 44 47 0 
-24 1 17 21 22 -14 7 8 9 10 11 12 13 18 26 37 -31 15 -6 44 47 0 
-5 25 47 0 
-6 44 47 0 
-30 40 -27 4 43 -5 25 47 0 
-14 7 8 9 10 11 12 13 18 26 37 -5 25 -16 47 0 
-32 2 23 33 35 36 45 47 0 
-3 -27 4 43 -5 25 47 0 
-15 31 -32 2 23 33 35 36 45 47 0 
-39 -29 -7 8 9 10 11 12 13 14 18 26 37 -3 47 0 
-24 1 17 21 22 -7 8 9 10 11 12 13 14 18 26 37 -30 40 47 0 
-38 19 34 -39 -14 7 8 9 10 11 12 13 18 26 37 -40 30 -41 47 0 
-29 -26 7 8 9 10 11 12 13 14 18 37 -6 44 47 0 
-20 -42 -43 4 27 46 0 
-13 7 8 9 10 11 12 14 18 26 37 -42 -44 6 46 0 
-40 30 -36 2 23 32 33 35 45 47 0 
-26 7 8 9 10 11 12 13 14 18 37 -3 -6 44 47 0 
-37 7 8 9 10 11 12 13 14 18 26 -31 15 -6 44 47 0 
-24 1 17 21 22 -15 31 -27 4 43 -16 47 0 
-15 31 -27 4 43 -16 47 0 
-5 25 -27 4 43 -6 44 47 0 
-26 7 8 9 10 11 12 13 14 18 37 -5 25 -16 47 0 
-27 4 43 -5 25 -16 47 0 
-3 -27 4 43 -5 25 -16 47 0 
-3 -5 25 47 0 
-45 2 23 32 33 35 36 47 0 
-30 40 -27 4 43 -5 25 -6 44 47 0 
-5 25 -6 44 47 0 
-24 1 17 21 22 -7 8 9 10 11 12 13 14 18 26 37 -3 47 0 
-14 7 8 9 10 11 12 13 18 26 37 -15 31 -6 44 47 0 
-29 -14 7 8 9 10 11 12 13 18 26 37 -6 44 47 0 
-15 31 -14 7 8 9 10 11 12 13 18 26 37 47 0 
